NAME          BLANK   
ROWS
 N  OBJROW
 L  R0000000
COLUMNS
    C0000000  OBJROW     -168.         R0000000  684.        
    C0000001  OBJROW     -547.         R0000000  45.         
    C0000002  OBJROW     -584.         R0000000  678.        
    C0000003  OBJROW     -513.         R0000000  805.        
    C0000004  OBJROW     -978.         R0000000  478.        
    C0000005  OBJROW     -417.         R0000000  549.        
    C0000006  OBJROW     -914.         R0000000  302.        
    C0000007  OBJROW     -225.         R0000000  485.        
    C0000008  OBJROW     -226.         R0000000  788.        
    C0000009  OBJROW     -65.          R0000000  623.        
    C0000010  OBJROW     -58.          R0000000  652.        
    C0000011  OBJROW     -519.         R0000000  583.        
    C0000012  OBJROW     -708.         R0000000  682.        
    C0000013  OBJROW     -429.         R0000000  641.        
    C0000014  OBJROW     -117.         R0000000  320.        
    C0000015  OBJROW     -213.         R0000000  258.        
    C0000016  OBJROW     -37.          R0000000  49.         
    C0000017  OBJROW     -69.          R0000000  402.        
    C0000018  OBJROW     -693.         R0000000  79.         
    C0000019  OBJROW     -734.         R0000000  123.        
    C0000020  OBJROW     -507.         R0000000  759.        
    C0000021  OBJROW     -279.         R0000000  563.        
    C0000022  OBJROW     -163.         R0000000  328.        
    C0000023  OBJROW     -8.           R0000000  531.        
    C0000024  OBJROW     -321.         R0000000  400.        
    C0000025  OBJROW     -177.         R0000000  985.        
    C0000026  OBJROW     -978.         R0000000  889.        
    C0000027  OBJROW     -473.         R0000000  121.        
    C0000028  OBJROW     -712.         R0000000  130.        
    C0000029  OBJROW     -274.         R0000000  329.        
    C0000030  OBJROW     -665.         R0000000  618.        
    C0000031  OBJROW     -392.         R0000000  113.        
    C0000032  OBJROW     -778.         R0000000  224.        
    C0000033  OBJROW     -336.         R0000000  451.        
    C0000034  OBJROW     -18.          R0000000  512.        
    C0000035  OBJROW     -673.         R0000000  761.        
    C0000036  OBJROW     -58.          R0000000  577.        
    C0000037  OBJROW     -495.         R0000000  273.        
    C0000038  OBJROW     -460.         R0000000  753.        
    C0000039  OBJROW     -725.         R0000000  217.        
    C0000040  OBJROW     -285.         R0000000  881.        
    C0000041  OBJROW     -902.         R0000000  714.        
    C0000042  OBJROW     -859.         R0000000  889.        
    C0000043  OBJROW     -143.         R0000000  114.        
    C0000044  OBJROW     -171.         R0000000  391.        
    C0000045  OBJROW     -167.         R0000000  100.        
    C0000046  OBJROW     -732.         R0000000  471.        
    C0000047  OBJROW     -581.         R0000000  44.         
    C0000048  OBJROW     -926.         R0000000  751.        
    C0000049  OBJROW     -269.         R0000000  234.        
RHS
    RHS       R0000000  11674.      
BOUNDS
 BV BOUND     C0000000  1.          
 BV BOUND     C0000001  1.          
 BV BOUND     C0000002  1.          
 BV BOUND     C0000003  1.          
 BV BOUND     C0000004  1.          
 BV BOUND     C0000005  1.          
 BV BOUND     C0000006  1.          
 BV BOUND     C0000007  1.          
 BV BOUND     C0000008  1.          
 BV BOUND     C0000009  1.          
 BV BOUND     C0000010  1.          
 BV BOUND     C0000011  1.          
 BV BOUND     C0000012  1.          
 BV BOUND     C0000013  1.          
 BV BOUND     C0000014  1.          
 BV BOUND     C0000015  1.          
 BV BOUND     C0000016  1.          
 BV BOUND     C0000017  1.          
 BV BOUND     C0000018  1.          
 BV BOUND     C0000019  1.          
 BV BOUND     C0000020  1.          
 BV BOUND     C0000021  1.          
 BV BOUND     C0000022  1.          
 BV BOUND     C0000023  1.          
 BV BOUND     C0000024  1.          
 BV BOUND     C0000025  1.          
 BV BOUND     C0000026  1.          
 BV BOUND     C0000027  1.          
 BV BOUND     C0000028  1.          
 BV BOUND     C0000029  1.          
 BV BOUND     C0000030  1.          
 BV BOUND     C0000031  1.          
 BV BOUND     C0000032  1.          
 BV BOUND     C0000033  1.          
 BV BOUND     C0000034  1.          
 BV BOUND     C0000035  1.          
 BV BOUND     C0000036  1.          
 BV BOUND     C0000037  1.          
 BV BOUND     C0000038  1.          
 BV BOUND     C0000039  1.          
 BV BOUND     C0000040  1.          
 BV BOUND     C0000041  1.          
 BV BOUND     C0000042  1.          
 BV BOUND     C0000043  1.          
 BV BOUND     C0000044  1.          
 BV BOUND     C0000045  1.          
 BV BOUND     C0000046  1.          
 BV BOUND     C0000047  1.          
 BV BOUND     C0000048  1.          
 BV BOUND     C0000049  1.          
ENDATA
